LAMMPS (2 Aug 2023 - Update 2)
OMP_NUM_THREADS environment is not set. Defaulting to 1 thread. (src/comm.cpp:98)
  using 1 OpenMP thread(s) per MPI task

echo both

# Define temperature parameters
variable	temperature equal 300.0 # Simulation temperature in Kelvin
variable	tempDamp equal 100.0 # Relaxation time of themostat - 0.1 ps

# Define pressure parameters
variable	pressure equal 1.0 # Pressure in bars
variable	pressureDamp equal 500.0 # Relaxation time of the barostat 0.5 ps

# Define random seed
variable	seed equal 98475

# Simulation setup
units		real
atom_style	full
variable	out_freq equal 1000 # Thermo output frequency
variable	out_freq2 equal 1000 # Dump output frequency
neigh_modify    delay 10 every 1 # Neighbor list setup

### TIP4P/Ew Parameters ###
pair_style     lj/cut/coul/long 5.0# This cutoff is too short for a real calculation
# Load configuration
read_data       water_test.data
Reading data file ...
  orthogonal box = (0 0 0) to (15.5 15.5 15.5)
  1 by 2 by 2 MPI processor grid
  reading atoms ...
  318 atoms
  scanning bonds ...
  2 = max bonds/atom
  scanning angles ...
  1 = max angles/atom
  reading bonds ...
  212 bonds
  reading angles ...
  106 angles
Finding 1-2 1-3 1-4 neighbors ...
  special bond factors lj:    0        0        0       
  special bond factors coul:  0        0        0       
     2 = max # of 1-2 neighbors
     1 = max # of 1-3 neighbors
     1 = max # of 1-4 neighbors
     2 = max # of special neighbors
  special bonds CPU = 0.000 seconds
  read_data CPU = 0.006 seconds

# create groups ###

group hy type 1
212 atoms in group hy
group ox type 2
106 atoms in group ox


## set charges - beside manually ###
set group ox charge -0.830
Setting atom values ...
  106 settings made for charge
set group hy charge 0.415
Setting atom values ...
  212 settings made for charge


# Water TIP3P
pair_coeff      1 1 0.0 0.0
pair_coeff      2 2 0.102 3.188
pair_coeff      1 2 0.0 0.0

bond_style      harmonic
bond_coeff      1 450 0.9572
angle_style     harmonic
angle_coeff     1 55 104.52
kspace_style    pppm 1e-2 # This value is too large for a real calculation

timestep	2.0 # Timestep 2 fs
thermo          ${out_freq}
thermo          1000
thermo_style 	custom step time temp pe ke etotal press density lx ly lz
restart 	${out_freq} restart restart2
restart 	1000 restart restart2

# Perform minimization
minimize 1.0e-2 1.0e-3 100 1000
Switching to 'neigh_modify every 1 delay 0 check yes' setting during minimization
PPPM initialization ...
  using 12-bit tables for long-range coulomb (src/kspace.cpp:342)
  G vector (1/distance) = 0.40023582
  grid = 8 8 8
  stencil order = 5
  estimated absolute RMS force accuracy = 0.77072025
  estimated relative force accuracy = 0.0023210011
  using double precision FFTW3
  3d grid and FFT values/proc = 1815 128
Generated 0 of 1 mixed pair_coeff terms from geometric mixing rule
Neighbor list info ...
  update: every = 1 steps, delay = 0 steps, check = yes
  max neighbors/atom: 2000, page size: 100000
  master list distance cutoff = 7
  ghost atom cutoff = 7
  binsize = 3.5, bins = 5 5 5
  1 neighbor lists, perpetual/occasional/extra = 1 0 0
  (1) pair lj/cut/coul/long, perpetual
      attributes: half, newton on
      pair build: half/bin/newton
      stencil: half/bin/3d
      bin: standard
Per MPI rank memory allocation (min/avg/max) = 8.234 | 8.234 | 8.235 Mbytes
   Step          Time           Temp          PotEng         KinEng         TotEng         Press         Density           Lx             Ly             Lz      
         0   0              0             -274.99323      0             -274.99323      15134.204      0.85153742     15.5           15.5           15.5         
        14   28             0             -944.94158      0             -944.94158     -7284.4272      0.85153742     15.5           15.5           15.5         
Loop time of 0.012528 on 4 procs for 14 steps with 318 atoms

98.8% CPU use with 4 MPI tasks x 1 OpenMP threads

Minimization stats:
  Stopping criterion = energy tolerance
  Energy initial, next-to-last, final = 
     -274.993230841848  -939.414930411713  -944.941575393451
  Force two-norm initial, final = 1989.5503 62.374346
  Force max component initial, final = 1204.7316 9.8786515
  Final line search alpha, max atom move = 0.0035406413 0.034976761
  Iterations, force evaluations = 14 19

MPI task timing breakdown:
Section |  min time  |  avg time  |  max time  |%varavg| %total
---------------------------------------------------------------
Pair    | 0.0035081  | 0.0043796  | 0.0050683  |   0.8 | 34.96
Bond    | 0.00011683 | 0.00014679 | 0.00016204 |   0.0 |  1.17
Kspace  | 0.004856   | 0.0055652  | 0.0064716  |   0.8 | 44.42
Neigh   | 0.00051587 | 0.00056736 | 0.00061209 |   0.0 |  4.53
Comm    | 0.0011665  | 0.001206   | 0.0012491  |   0.1 |  9.63
Output  | 0          | 0          | 0          |   0.0 |  0.00
Modify  | 0          | 0          | 0          |   0.0 |  0.00
Other   |            | 0.0006631  |            |       |  5.29

Nlocal:           79.5 ave          89 max          67 min
Histogram: 1 0 0 0 1 0 0 0 1 1
Nghost:         1136.5 ave        1160 max        1113 min
Histogram: 1 1 0 0 0 0 0 0 1 1
Neighs:        4863.25 ave        5485 max        3718 min
Histogram: 1 0 0 0 0 0 1 0 1 1

Total # of neighbors = 19453
Ave neighs/atom = 61.172956
Ave special neighs/atom = 2
Neighbor list builds = 1
Dangerous builds = 0

# Write trajectory to file
dump           	myDump all dcd ${out_freq2} out.dcd
dump           	myDump all dcd 1000 out.dcd
dump           	myDump2 all xyz ${out_freq2} out.xyz
dump           	myDump2 all xyz 1000 out.xyz
#dump_modify    	myDump unwrap yes

# Start simulation

reset_timestep 	0

fix             1 all temp/csvr ${temperature} ${temperature} ${tempDamp} ${seed} # Bussi's thermostat
fix             1 all temp/csvr 300 ${temperature} ${tempDamp} ${seed} 
fix             1 all temp/csvr 300 300 ${tempDamp} ${seed} 
fix             1 all temp/csvr 300 300 100 ${seed} 
fix             1 all temp/csvr 300 300 100 98475 
fix             2 all shake 0.0001 20 100000 t 1 2 # Shake algorithm
Finding SHAKE clusters ...
       0 = # of size 2 clusters
     106 = # of size 3 clusters
       0 = # of size 4 clusters
       0 = # of frozen angles
  find clusters CPU = 0.000 seconds
#fix             3 all nve
fix             3 all nph iso ${pressure} ${pressure} ${pressureDamp} # Isotropic barostat
fix             3 all nph iso 1 ${pressure} ${pressureDamp} 
fix             3 all nph iso 1 1 ${pressureDamp} 
fix             3 all nph iso 1 1 500 
fix 		4 all momentum 10000 linear 1 1 1 # Set total linear momentum to zero every 10000 steps

velocity        all create ${temperature} ${seed} dist gaussian
velocity        all create 300 ${seed} dist gaussian
velocity        all create 300 98475 dist gaussian

run 50000
PPPM initialization ...
  using 12-bit tables for long-range coulomb (src/kspace.cpp:342)
  G vector (1/distance) = 0.40023582
  grid = 8 8 8
  stencil order = 5
  estimated absolute RMS force accuracy = 0.77072025
  estimated relative force accuracy = 0.0023210011
  using double precision FFTW3
  3d grid and FFT values/proc = 1815 128
Generated 0 of 1 mixed pair_coeff terms from geometric mixing rule
SHAKE stats (type/ave/delta/count) on step 0
Bond:   1   0.973406  0.0453782        212
Per MPI rank memory allocation (min/avg/max) = 8.019 | 8.019 | 8.02 Mbytes
   Step          Time           Temp          PotEng         KinEng         TotEng         Press         Density           Lx             Ly             Lz      
         0   0              300           -977.43396      220.28186     -757.15209     -3563.7749      0.85153742     15.5           15.5           15.5         
      1000   2000           310.5057      -1022.6149      227.99591     -794.61899     -57.428805      0.92656614     15.069799      15.069799      15.069799    
      2000   4000           314.13594     -1018.0879      230.6615      -787.42644      874.82626      0.97609347     14.81048       14.81048       14.81048     
      3000   6000           281.57584     -995.64652      206.7535      -788.89302      954.69407      0.92788236     15.06267       15.06267       15.06267     
      4000   8000           325.42523     -1013.9257      238.95092     -774.97476     -2026.2602      0.93988969     14.998252      14.998252      14.998252    
      5000   10000          293.03987     -1004.3203      215.17123     -789.1491      -117.87376      0.9434184      14.979529      14.979529      14.979529    
      6000   12000          319.28472     -1032.3957      234.44211     -797.95364      438.70934      0.97059389     14.838401      14.838401      14.838401    
      7000   14000          304.9541      -1031.5266      223.91952     -807.60712      368.59095      0.95657349     14.910544      14.910544      14.910544    
      8000   16000          282.68819     -1011.6977      207.57027     -804.12747      1250.5058      0.9511878      14.938633      14.938633      14.938633    
      9000   18000          295.32836     -1051.1243      216.85161     -834.27266      603.29712      0.96236741     14.880561      14.880561      14.880561    
     10000   20000          306.54296     -996.33085      225.08618     -771.24467      770.34377      0.94310461     14.98119       14.98119       14.98119     
     11000   22000          315.78441     -1038.2627      231.87192     -806.39075     -969.52857      0.90699353     15.177429      15.177429      15.177429    
     12000   24000          293.15923     -988.54871      215.25887     -773.28984      667.26611      0.97781968     14.80176       14.80176       14.80176     
     13000   26000          303.00419     -991.59827      222.48776     -769.11051     -666.84172      0.96079683     14.888665      14.888665      14.888665    
     14000   28000          282.893       -1023.4735      207.72066     -815.7528      -152.45938      0.97457833     14.818151      14.818151      14.818151    
     15000   30000          309.87011     -1045.6835      227.52922     -818.15423     -1979.4567      0.92257842     15.091481      15.091481      15.091481    
     16000   32000          304.39748     -1019.7633      223.51081     -796.25249     -1604.372       0.91364721     15.140496      15.140496      15.140496    
     17000   34000          307.71862     -997.47561      225.94944     -771.52617      33.868656      0.96582011     14.862808      14.862808      14.862808    
     18000   36000          313.82065     -1008.4949      230.42999     -778.06494      83.355426      0.90339378     15.197562      15.197562      15.197562    
     19000   38000          289.9694      -999.74991      212.91667     -786.83324      474.3803       0.93009004     15.050743      15.050743      15.050743    
     20000   40000          288.57313     -1003.1948      211.89142     -791.30342     -1899.166       0.95343929     14.926865      14.926865      14.926865    
     21000   42000          308.70072     -990.52858      226.67057     -763.85801     -519.67907      0.92101854     15.099996      15.099996      15.099996    
     22000   44000          306.59865     -972.22063      225.12707     -747.09356      4385.9761      0.958418       14.900973      14.900973      14.900973    
     23000   46000          264.8872      -998.79112      194.49949     -804.29163     -1087.7264      0.94687243     14.961293      14.961293      14.961293    
     24000   48000          291.4964      -972.35126      214.0379      -758.31336     -106.42182      0.91113221     15.154414      15.154414      15.154414    
     25000   50000          298.32059     -1010.9358      219.04872     -791.88711      447.59682      0.96399104     14.872202      14.872202      14.872202    
     26000   52000          299.96492     -1021.6745      220.25611     -801.41836      706.55899      0.96329353     14.875791      14.875791      14.875791    
     27000   54000          312.75499     -996.32562      229.6475      -766.67811     -159.40793      0.93439881     15.027573      15.027573      15.027573    
     28000   56000          296.90116     -969.56335      218.00647     -751.55688      711.81534      0.92931508     15.054926      15.054926      15.054926    
     29000   58000          266.42581     -1018.7647      195.62925     -823.13543      1249.2433      0.94771784     14.956843      14.956843      14.956843    
     30000   60000          277.02595     -1025.4738      203.41264     -822.06115     -77.207508      0.97993373     14.791108      14.791108      14.791108    
     31000   62000          277.87189     -1004.4973      204.03379     -800.46353      23.406582      0.9244584      15.081244      15.081244      15.081244    
     32000   64000          290.74963     -996.22708      213.48957     -782.73751      2089.5269      0.94499136     14.971213      14.971213      14.971213    
     33000   66000          280.90863     -1015.3642      206.26358     -809.10057      201.0505       0.96939172     14.844532      14.844532      14.844532    
     34000   68000          295.78753     -1002.8164      217.18876     -785.62766     -1667.7791      0.94866845     14.951845      14.951845      14.951845    
     35000   70000          294.56729     -1015.8637      216.29277     -799.57098     -1002.8163      0.90770629     15.173456      15.173456      15.173456    
     36000   72000          291.98281     -1017.0329      214.39506     -802.63779     -363.33677      0.95852255     14.900431      14.900431      14.900431    
     37000   74000          313.94095     -1003.8314      230.51832     -773.31312     -1730.2163      0.92756953     15.064364      15.064364      15.064364    
     38000   76000          303.53729     -1008.7876      222.8792      -785.90842     -475.44452      0.89391134     15.25111       15.25111       15.25111     
     39000   78000          319.93258     -1015.2958      234.91781     -780.378        414.17432      0.94387288     14.977125      14.977125      14.977125    
     40000   80000          282.10798     -1023.4129      207.14424     -816.26862     -243.10182      0.93143293     15.043507      15.043507      15.043507    
     41000   82000          283.89573     -1016.1048      208.45693     -807.64788     -959.23484      0.96948429     14.844059      14.844059      14.844059    
     42000   84000          311.03578     -1025.3622      228.38514     -796.97707     -652.04474      0.94069782     14.993956      14.993956      14.993956    
     43000   86000          288.53391     -994.89744      211.86263     -783.03482     -446.23031      0.9692962      14.84502       14.84502       14.84502     
     44000   88000          314.11385     -1024.6781      230.64528     -794.03283     -1306.5221      0.93157431     15.042746      15.042746      15.042746    
     45000   90000          284.50533     -1019.9882      208.90455     -811.08364      1002.63        0.98998643     14.740873      14.740873      14.740873    
     46000   92000          272.03953     -1007.0545      199.75125     -807.30324     -80.608765      0.9265451      15.069913      15.069913      15.069913    
     47000   94000          312.8153      -1011.6801      229.69179     -781.98829     -1481.7142      0.92270836     15.090772      15.090772      15.090772    
     48000   96000          310.90883     -1013.3867      228.29192     -785.09475      1601.0668      1.0177613      14.60554       14.60554       14.60554     
     49000   98000          302.78769     -1007.7226      222.32879     -785.39384      252.29165      0.97627105     14.809582      14.809582      14.809582    
     50000   100000         285.17205     -1020.3347      209.3941      -810.94059     -109.70427      0.92881676     15.057618      15.057618      15.057618    
Loop time of 14.3742 on 4 procs for 50000 steps with 318 atoms

Performance: 601.077 ns/day, 0.040 hours/ns, 3478.455 timesteps/s, 1.106 Matom-step/s
99.9% CPU use with 4 MPI tasks x 1 OpenMP threads

MPI task timing breakdown:
Section |  min time  |  avg time  |  max time  |%varavg| %total
---------------------------------------------------------------
Pair    | 3.9749     | 4.0354     | 4.1361     |   3.0 | 28.07
Bond    | 0.13209    | 0.13356    | 0.13765    |   0.6 |  0.93
Kspace  | 5.2521     | 5.3654     | 5.4298     |   2.9 | 37.33
Neigh   | 0.86521    | 0.86661    | 0.86861    |   0.1 |  6.03
Comm    | 1.4588     | 1.4722     | 1.5046     |   1.6 | 10.24
Output  | 0.020446   | 0.020453   | 0.020468   |   0.0 |  0.14
Modify  | 2.3246     | 2.3629     | 2.382      |   1.5 | 16.44
Other   |            | 0.1177     |            |       |  0.82

Nlocal:           79.5 ave          90 max          72 min
Histogram: 1 0 1 1 0 0 0 0 0 1
Nghost:        1175.75 ave        1204 max        1139 min
Histogram: 1 0 0 0 1 0 0 1 0 1
Neighs:        5283.75 ave        6223 max        4694 min
Histogram: 1 1 0 1 0 0 0 0 0 1

Total # of neighbors = 21135
Ave neighs/atom = 66.462264
Ave special neighs/atom = 2
Neighbor list builds = 3709
Dangerous builds = 256


Total wall time: 0:00:14
